data/CVRPLIB/Vrp-Set-XML100/instances/XML100_1113_15.vrp
NAME : XML100_1113_15
COMMENT : Generated by Queiroga, Sadykov, Uchoa, and Vidal (2021)
TYPE : CVRP
DIMENSION : 101
EDGE_WEIGHT_TYPE : EUC_2D
CAPACITY : 8
NODE_COORD_SECTION
1    167  605 
2    459  388 
3    955  586 
4    296  146 
5    197  608 
6    873  723 
7    926  673 
8    758  983 
9    524  986 
10   414  829 
11   627  805 
12   421  666 
13   998  750 
14   741  478 
15   800  571 
16   486  579 
17   306  400 
18   622  65  
19   372  40  
20   121  386 
21   24   86  
22   272  337 
23   208  880 
24   938  754 
25   231  446 
26   56   792 
27   142  661 
28   721  150 
29   58   115 
30   755  254 
31   503  57  
32   699  757 
33   93   30  
34   310  694 
35   892  207 
36   661  755 
37   372  653 
38   221  231 
39   591  990 
40   634  931 
41   96   945 
42   392  414 
43   328  915 
44   623  445 
45   783  100 
46   485  547 
47   277  110 
48   273  485 
49   901  63  
50   886  216 
51   718  126 
52   535  706 
53   356  971 
54   195  362 
55   803  702 
56   815  587 
57   804  492 
58   124  929 
59   661  525 
60   442  161 
61   147  142 
62   73   670 
63   103  387 
64   64   353 
65   690  493 
66   85   123 
67   518  33  
68   185  812 
69   684  946 
70   725  817 
71   549  951 
72   150  479 
73   288  700 
74   640  298 
75   295  166 
76   440  412 
77   989  162 
78   488  645 
79   470  277 
80   567  831 
81   239  820 
82   571  12  
83   321  548 
84   929  154 
85   712  171 
86   788  865 
87   550  343 
88   249  244 
89   885  651 
90   396  650 
91   297  497 
92   554  729 
93   296  636 
94   829  961 
95   109  132 
96   898  884 
97   193  901 
98   544  292 
99   380  922 
100  780  92  
101  254  781 
DEMAND_SECTION
1    0   
2    1   
3    1   
4    1   
5    1   
6    1   
7    1   
8    1   
9    1   
10   1   
11   1   
12   1   
13   1   
14   1   
15   1   
16   1   
17   1   
18   1   
19   1   
20   1   
21   1   
22   1   
23   1   
24   1   
25   1   
26   1   
27   1   
28   1   
29   1   
30   1   
31   1   
32   1   
33   1   
34   1   
35   1   
36   1   
37   1   
38   1   
39   1   
40   1   
41   1   
42   1   
43   1   
44   1   
45   1   
46   1   
47   1   
48   1   
49   1   
50   1   
51   1   
52   1   
53   1   
54   1   
55   1   
56   1   
57   1   
58   1   
59   1   
60   1   
61   1   
62   1   
63   1   
64   1   
65   1   
66   1   
67   1   
68   1   
69   1   
70   1   
71   1   
72   1   
73   1   
74   1   
75   1   
76   1   
77   1   
78   1   
79   1   
80   1   
81   1   
82   1   
83   1   
84   1   
85   1   
86   1   
87   1   
88   1   
89   1   
90   1   
91   1   
92   1   
93   1   
94   1   
95   1   
96   1   
97   1   
98   1   
99   1   
100  1   
101  1   
DEPOT_SECTION
1
-1
EOF
