data/CVRPLIB/Vrp-Set-XML100/solutions/XML100_1113_15.sol
Route #1: 82 75 1 86 97 78 41 90
Route #2: 21 87 74 3 46 18 59 16
Route #3: 37 60 94 65 32 20 28 63
Route #4: 39 68 7 93 95 85 69 31
Route #5: 73 84 27 50 17 81 66 30
Route #6: 44 99 48 76 83 34 49 29
Route #7: 71 62 19 53 24 47
Route #8: 80 42 52 8 38 70 98 100
Route #9: 45 43 64 13 56 14 58 15
Route #10: 61 25 40 57 96 22 67 26
Route #11: 72 33 36 89 92 4
Route #12: 55 88 2 6 12 23 5 54
Route #13: 9 79 10 35 91 51 77 11
Cost 16750
